

[MultiBuffValue]	MultiBuffID	Order	ForceID	ForceValue	ValueType
0	1	0	117	450	1
1	2	0	117	150	1
2	3	0	9	5	2
3	3	1	8	10	2
4	4	0	3	20	1
5	4	1	30	5	2
6	4	2	5	20	1
7	5	0	4	20	1
8	5	1	32	5	2
9	5	2	5	20	1
10	6	0	99	30	2
11	6	1	101	30	2
12	6	2	102	30	2
13	6	3	103	30	2
14	7	0	99	100	2
15	7	1	101	100	2
16	7	2	102	100	2
17	7	3	103	100	2
18	8	0	6	200	1
19	9	0	6	600	1
20	10	0	6	1200	1
21	11	0	6	2400	1
22	12	0	7	100	1
23	13	0	7	300	1
24	14	0	7	600	1
25	15	0	7	1200	1
26	16	0	1	400	1
27	17	0	1	700	1
28	18	0	1	1000	1
29	19	0	1	1500	1
30	20	0	3	10	1
31	21	0	3	20	1
32	22	0	3	30	1
33	23	0	3	50	1
34	24	0	4	10	1
35	25	0	4	20	1
36	26	0	4	30	1
37	27	0	4	50	1
38	28	0	37	6	1
39	29	0	37	8	1
40	30	0	37	12	1
41	31	0	37	20	1
42	32	0	5	10	1
43	33	0	5	20	1
44	34	0	5	30	1
45	35	0	5	60	1
46	36	0	39	20	1
47	37	0	39	30	1
48	38	0	39	50	1
49	39	0	39	100	1
50	40	0	30	4	2
51	41	0	30	7	2
52	42	0	30	10	2
53	43	0	30	15	2
54	44	0	32	4	2
55	45	0	32	7	2
56	46	0	32	10	2
57	47	0	32	15	2
58	48	0	36	30	2
59	49	0	36	50	2
60	50	0	36	70	2
61	51	0	36	90	2
62	52	0	43	10	2
63	53	0	43	20	2
64	54	0	43	30	2
65	55	0	43	50	2
66	56	0	1	350	1
67	57	0	1	400	1
68	58	0	1	450	1
69	59	0	1	500	1
70	60	0	1	550	1
71	61	0	1	600	1
72	62	0	1	650	1
73	63	0	5	24	1
74	64	0	5	27	1
75	65	0	5	30	1
76	66	0	5	33	1
77	67	0	5	36	1
78	68	0	5	39	1
79	69	0	5	42	1
80	70	0	5	45	1
81	71	0	1	35	1
82	72	0	3	3	1
83	73	0	4	3	1
84	74	0	5	3	1
85	75	0	1	45	1
86	76	0	3	4	1
87	77	0	4	4	1
88	78	0	5	4	1
89	79	0	1	60	1
90	80	0	3	6	1
91	81	0	4	6	1
92	82	0	5	6	1
93	83	0	117	2300	1
94	84	0	6	2400	1
95	85	0	7	1200	1
96	86	0	1	600	1
97	87	0	3	50	1
98	88	0	4	50	1
99	89	0	37	12	1
100	90	0	5	40	1
101	91	0	39	100	1
102	92	0	30	15	2
103	93	0	32	15	2
104	94	0	36	90	2
105	95	0	1	70	1
106	95	1	5	7	1
107	96	0	1	200	1
108	96	1	5	20	1
109	97	0	1	350	1
110	97	1	5	35	1
111	98	0	1	500	1
112	98	1	5	50	1
113	99	0	8	3	2
114	99	1	9	5	2
115	100	0	8	6	2
116	100	1	9	10	2
117	101	0	8	9	2
118	101	1	9	15	2
119	102	0	8	12	2
120	102	1	9	20	2
121	103	0	3	10	1
122	103	1	4	10	1
123	104	0	3	30	1
124	104	1	4	30	1
125	105	0	3	50	1
126	105	1	4	50	1
127	106	0	3	100	1
128	106	1	4	100	1
129	107	0	7	100	1
130	107	1	6	150	1
131	108	0	7	200	1
132	108	1	6	300	1
133	109	0	7	300	1
134	109	1	6	600	1
135	110	0	7	500	1
136	110	1	6	1000	1
137	111	0	30	7	2
138	111	1	5	20	1
139	112	0	30	10	2
140	112	1	5	30	1
141	113	0	30	15	2
142	113	1	5	50	1
143	114	0	30	20	2
144	114	1	5	100	1
145	115	0	32	7	2
146	115	1	5	20	1
147	116	0	32	10	2
148	116	1	5	30	1
149	117	0	32	15	2
150	117	1	5	50	1
151	118	0	32	20	2
152	118	1	5	100	1
